39 39
29
3 3   33 21
3 4   33 17
3 5   36 25
3 6   36 11
3 7   33 0 
3 8   36 17
3 9   36 30
3 10  33 7 
3 11  36 0 
3 15  33 24
4 3   14 8 
4 4   0 35
4 5   5 6 
4 6   5 0 
4 8   14 0 
4 9   0 11
4 12  14 27
4 15  0 20
4 16  14 11
5 3   9 13
5 4   4 19
5 5   9 16
5 6   4 23
5 8   4 11
5 10  4 29
5 11  0 0 
5 13  9 0 
5 18  9 21
15 39  18 0 
